81,200,u,graph,2,Int64,simplegraph
1,2
1,10
1,11
2,3
2,11
2,12
3,4
3,12
3,13
4,5
4,13
4,14
5,6
5,14
5,15
6,7
6,15
6,16
7,8
7,16
7,17
8,9
8,17
8,18
9,18
10,11
10,19
11,19
11,20
12,13
12,20
12,21
13,14
13,21
13,22
14,15
14,22
14,23
15,16
15,23
15,24
16,24
16,25
17,18
17,25
17,26
18,26
18,27
19,20
19,28
19,29
20,21
20,29
20,30
21,22
21,30
21,31
22,23
22,31
22,32
23,24
23,32
23,33
24,25
24,33
24,34
25,26
25,34
26,27
26,35
26,36
27,36
28,29
28,37
29,37
29,38
30,31
30,38
30,39
31,32
31,39
31,40
32,33
32,40
32,41
33,34
33,41
34,35
34,42
34,43
35,36
35,43
35,44
36,44
36,45
37,38
37,46
37,47
38,39
38,47
38,48
39,40
39,48
39,49
40,41
40,49
41,42
41,50
41,51
42,43
42,51
42,52
43,44
43,52
43,53
44,45
44,53
44,54
45,54
46,47
46,55
47,48
47,55
47,56
48,49
48,56
48,57
49,50
49,57
49,58
50,51
50,58
50,59
51,52
51,59
51,60
52,53
52,60
52,61
53,54
53,61
53,62
54,62
54,63
55,56
55,64
55,65
56,57
56,65
56,66
57,58
57,66
57,67
58,59
58,67
58,68
59,68
59,69
60,61
60,69
60,70
61,62
61,70
61,71
62,63
62,71
62,72
63,72
64,65
64,73
65,66
65,73
65,74
66,67
66,74
66,75
67,68
67,75
67,76
68,69
68,76
68,77
69,70
69,77
70,71
70,78
70,79
71,72
71,79
71,80
72,80
72,81
73,74
74,75
75,76
76,77
77,78
78,79
79,80
80,81
